p cnf 25 18
-1 13 22 -23 -9 0 
-2 -3 16 22 -23 -9 0 
-4 -5 23 0 
-6 24 0 
-7 11 25 -23 0 
-8 -7 11 25 -23 0 
-9 -7 11 25 -23 0 
-10 25 -23 0 
-3 16 -11 7 22 -23 -9 0 
-12 15 -13 1 22 -23 -9 0 
-14 -7 11 25 -23 0 
-15 12 -6 -16 3 -13 1 22 -23 -9 0 
-17 -18 -7 11 25 -23 0 
-19 23 0 
-20 22 -23 -9 0 
-4 22 -23 -9 0 
-21 -1 13 22 -23 -9 0 
-17 22 -23 -9 0 
